12 16 9 10
4 14 2 9 5 16 1 16 12 13 13 19 7 19 15 10 
3.76 1.64 7.5 3.27 4.33 6.75 0.24 3.29 2.14 4.52 1.27 1.42 1.43 1.16 5.2 2.13 
6.37 2.62 2.46 1.08 5.38 2.76 6.68 6.32 0.95 4.81 4.32 5.23 2.94 6.93 5.69 3.85 
1.71 1.29 3.18 3.5 6.51 6.04 3.58 5.01 1.1 6.45 7.93 3.91 7.42 0.36 2.51 3.45 
5.82 5.51 2.41 5.86 4.29 1.24 2.53 3.5 1.32 7.34 4.69 5.66 0.73 5.31 7.74 0.07 
2.3 4.98 7.35 3.79 6.35 5.46 5.92 2.98 3.24 0.6 1.26 2.08 7.07 6.01 4.23 1.38 
4.48 4.14 0.23 3.43 1.66 0.75 6.65 4.09 2.63 1.32 7.39 7.94 0.84 5.98 4.37 1.25 
4.9 7.28 6.18 0.96 6.89 3.36 7.62 4.07 2.3 2.89 3.83 2.31 5.51 4.96 1.14 0.13 
7.61 0.38 7.02 4.04 6.59 3.78 5.04 3.72 5.52 6.67 2.62 3.28 1.25 3.7 7.65 1.48 
0.57 2.82 5.6 3 4.94 3.91 3.72 1.73 6.03 0.09 6.55 2.76 6.56 7.69 4.38 5.76 
4 4 4 4 4 4 4 4 4 4 4 4 4 4 4 4 
4.64 3.12 5.14 4.06 7.1 7.19 4.48 3.93 3.01 4.26 6.5 4.33 0.03 6.44 7.17 2.42 
4.79 4.08 1.01 5.95 4.49 7.32 4.24 5.07 0.4 3.55 5.12 4.18 1.44 0.25 5.53 2.6 
1 1 1 1 1 1 1 1 1 1 1 1 1 1 1 1 
1 1 1 1 1 1 1 1 1 1 1 1 1 1 1 1 
1 1 1 1 1 1 1 1 1 1 1 1 1 1 1 1 
1 1 1 1 1 1 1 1 1 1 1 1 1 1 1 1 
1 1 1 1 1 1 1 1 1 1 1 1 1 1 1 1 
1 1 1 1 1 1 1 1 1 1 1 1 1 1 1 1 
1 1 1 1 1 1 1 1 1 1 1 1 1 1 1 1 
1 1 1 1 1 1 1 1 1 1 1 1 1 1 1 1 
1 1 1 1 1 1 1 1 1 1 1 1 1 1 1 1 
1 1 1 1 1 1 1 1 1 1 1 1 1 1 1 1 
1 1 1 1 1 1 1 1 1 1 1 1 1 1 1 1 
1 1 1 1 1 1 1 1 1 1 1 1 1 1 1 1 
0.01 0.01 0.01 0.01 0.01 0.01 0.01 0.01 0.01 0.01 0.01 0.01 0.01 0.01 0.01 0.01 
0.02 0.02 0.02 0.02 0.02 0.02 0.02 0.02 0.02 0.02 0.02 0.02 0.02 0.02 0.02 0.02 
0.03 0.03 0.03 0.03 0.03 0.03 0.03 0.03 0.03 0.03 0.03 0.03 0.03 0.03 0.03 0.03 
0.04 0.04 0.04 0.04 0.04 0.04 0.04 0.04 0.04 0.04 0.04 0.04 0.04 0.04 0.04 0.04 
0.05 0.05 0.05 0.05 0.05 0.05 0.05 0.05 0.05 0.05 0.05 0.05 0.05 0.05 0.05 0.05 
0.06 0.06 0.06 0.06 0.06 0.06 0.06 0.06 0.06 0.06 0.06 0.06 0.06 0.06 0.06 0.06 
0.07 0.07 0.07 0.07 0.07 0.07 0.07 0.07 0.07 0.07 0.07 0.07 0.07 0.07 0.07 0.07 
0.08 0.08 0.08 0.08 0.08 0.08 0.08 0.08 0.08 0.08 0.08 0.08 0.08 0.08 0.08 0.08 
0.09 0.09 0.09 0.09 0.09 0.09 0.09 0.09 0.09 0.09 0.09 0.09 0.09 0.09 0.09 0.09 
0.1 0.1 0.1 0.1 0.1 0.1 0.1 0.1 0.1 0.1 0.1 0.1 0.1 0.1 0.1 0.1 
0.5 0.5 0.5 0.5 0.5 0.5 0.5 0.5 0.5 0.5 0.5 0.5 0.5 0.5 0.5 0.5 
1 1 1 1 1 1 1 1 1 1 1 1 1 1 1 1 
